(set-logic QF_S)
(set-option :parse-transducers true)
(set-option :produce-models true)
(define-fun-rec toLower ((x String) (y String)) Bool
   (or (and (= x "") (= y ""))
       (and (not (= x "")) (not (= y ""))
           (= (char.code (str.head y))
               (ite (and (<= 65 (char.code (str.head x)))
                       (<= (char.code (str.head x)) 90))
                   (+ (char.code (str.head x)) 32)
                   (char.code (str.head x))))
           (toLower (str.tail x) (str.tail y))))
)
(declare-fun sym205 () String)
(assert (<= (str.len sym205) 11))
(declare-fun sym403 () String)
(assert (<= (str.len sym403) 11))
(declare-fun sym327 () String)
(assert (<= (str.len sym327) 11))
(declare-fun sym605 () String)
(assert (<= (str.len sym605) 11))
(declare-fun sym649 () String)
(assert (<= (str.len sym649) 11))
(declare-fun sym729 () String)
(assert (<= (str.len sym729) 11))
(declare-fun sym561 () String)
(assert (<= (str.len sym561) 11))
(declare-fun sym685 () String)
(assert (<= (str.len sym685) 11))
(declare-fun sym443 () String)
(assert (<= (str.len sym443) 11))
(declare-fun sym367 () String)
(assert (<= (str.len sym367) 11))
(declare-fun sym489 () String)
(assert (<= (str.len sym489) 11))
(declare-fun sym523 () String)
(assert (<= (str.len sym523) 11))
(declare-fun sym160 () String)
(assert (<= (str.len sym160) 11))
(declare-fun sym459 () String)
(assert (<= (str.len sym459) 11))
(declare-fun sym739 () String)
(assert (<= (str.len sym739) 11))
(declare-fun sym619 () String)
(assert (<= (str.len sym619) 11))
(declare-fun sym571 () String)
(assert (<= (str.len sym571) 11))
(declare-fun sym175 () String)
(assert (<= (str.len sym175) 11))
(declare-fun sym254 () String)
(assert (<= (str.len sym254) 11))
(declare-fun sym695 () String)
(assert (<= (str.len sym695) 11))
(declare-fun sym377 () String)
(assert (<= (str.len sym377) 11))
(declare-fun sym135 () String)
(assert (<= (str.len sym135) 11))
(declare-fun sym499 () String)
(assert (<= (str.len sym499) 11))
(declare-fun sym533 () String)
(assert (<= (str.len sym533) 11))
(declare-fun sym215 () String)
(assert (<= (str.len sym215) 11))
(declare-fun sym413 () String)
(assert (<= (str.len sym413) 11))
(declare-fun sym293 () String)
(assert (<= (str.len sym293) 11))
(declare-fun sym20 () String)
(assert (<= (str.len sym20) 11))
(declare-fun sym469 () String)
(assert (<= (str.len sym469) 11))
(declare-fun sym547 () String)
(assert (<= (str.len sym547) 11))
(declare-fun sym705 () String)
(assert (<= (str.len sym705) 11))
(declare-fun sym629 () String)
(assert (<= (str.len sym629) 11))
(declare-fun sym342 () String)
(assert (<= (str.len sym342) 11))
(declare-fun sym585 () String)
(assert (<= (str.len sym585) 11))
(declare-fun sym387 () String)
(assert (<= (str.len sym387) 11))
(declare-fun sym268 () String)
(assert (<= (str.len sym268) 11))
(declare-fun sym423 () String)
(assert (<= (str.len sym423) 11))
(declare-fun sym665 () String)
(assert (<= (str.len sym665) 11))
(declare-fun sym225 () String)
(assert (<= (str.len sym225) 11))
(declare-fun sym303 () String)
(assert (<= (str.len sym303) 11))
(declare-fun sym185 () String)
(assert (<= (str.len sym185) 11))
(declare-fun sym719 () String)
(assert (<= (str.len sym719) 11))
(declare-fun sym513 () String)
(assert (<= (str.len sym513) 11))
(declare-fun sym239 () String)
(assert (<= (str.len sym239) 11))
(declare-fun sym639 () String)
(assert (<= (str.len sym639) 11))
(declare-fun sym352 () String)
(assert (<= (str.len sym352) 11))
(declare-fun sym595 () String)
(assert (<= (str.len sym595) 11))
(declare-fun sym113 () String)
(assert (<= (str.len sym113) 11))
(declare-fun sym278 () String)
(assert (<= (str.len sym278) 11))
(declare-fun sym675 () String)
(assert (<= (str.len sym675) 11))
(declare-fun sym433 () String)
(assert (<= (str.len sym433) 11))
(declare-fun sym313 () String)
(assert (<= (str.len sym313) 11))
(declare-fun sym479 () String)
(assert (<= (str.len sym479) 11))
(declare-fun sym150 () String)
(assert (<= (str.len sym150) 11))
(declare-fun sym195 () String)
(assert (<= (str.len sym195) 11))
(declare-fun L27  () String)
(declare-fun L39  () String)
(declare-fun L19  () String)
(declare-fun L23  () String)
(declare-fun L106  () String)
(declare-fun L35  () String)
(declare-fun L47  () String)
(declare-fun L15  () String)
(declare-fun L7  () String)
(declare-fun L31  () String)
(declare-fun L43  () String)
(declare-fun L11  () String)
(declare-fun L55  () String)
(declare-fun L3  () String)
(declare-fun L51  () String)
(declare-fun L102  () String)
(declare-fun L18  () String)
(declare-fun L78  () String)
(declare-fun L74  () String)
(declare-fun L8  () String)
(declare-fun L86  () String)
(declare-fun L10  () String)
(declare-fun L98  () String)
(declare-fun L66  () String)
(declare-fun L70  () String)
(declare-fun L4  () String)
(declare-fun L82  () String)
(declare-fun L94  () String)
(declare-fun L62  () String)
(declare-fun L0  () String)
(declare-fun L90  () String)
(declare-fun L49  () String)
(declare-fun L17  () String)
(declare-fun L29  () String)
(declare-fun L45  () String)
(declare-fun L13  () String)
(declare-fun L57  () String)
(declare-fun L25  () String)
(declare-fun L69  () String)
(declare-fun L104  () String)
(declare-fun L37  () String)
(declare-fun L41  () String)
(declare-fun L53  () String)
(declare-fun L21  () String)
(declare-fun L108  () String)
(declare-fun L33  () String)
(declare-fun L1  () String)
(declare-fun L100  () String)
(declare-fun L68  () String)
(declare-fun L36  () String)
(declare-fun L96  () String)
(declare-fun L64  () String)
(declare-fun L32  () String)
(declare-fun L76  () String)
(declare-fun L6  () String)
(declare-fun L44  () String)
(declare-fun L88  () String)
(declare-fun L92  () String)
(declare-fun L60  () String)
(declare-fun L72  () String)
(declare-fun L2  () String)
(declare-fun L84  () String)
(declare-fun L80  () String)
(define-fun Alphabet () RegLan 
	(re.* (re.union (str.to_re "A") (str.to_re "B") (str.to_re "C") (str.to_re "D") (str.to_re "E") (str.to_re "F") (str.to_re "G") (str.to_re "H") (str.to_re "I") (str.to_re "J") (str.to_re "K") (str.to_re "L") (str.to_re "M") (str.to_re "N") (str.to_re "O") (str.to_re "P") (str.to_re "Q") (str.to_re "R") (str.to_re "S") (str.to_re "T") (str.to_re "U") (str.to_re "V") (str.to_re "W") (str.to_re "X") (str.to_re "Y") (str.to_re "Z") (str.to_re "a") (str.to_re "b") (str.to_re "c") (str.to_re "d") (str.to_re "e") (str.to_re "f") (str.to_re "g") (str.to_re "h") (str.to_re "i") (str.to_re "j") (str.to_re "k") (str.to_re "l") (str.to_re "m") (str.to_re "n") (str.to_re "o") (str.to_re "p") (str.to_re "q") (str.to_re "r") (str.to_re "s") (str.to_re "t") (str.to_re "u") (str.to_re "v") (str.to_re "w") (str.to_re "x") (str.to_re "y") (str.to_re "z") ))
)
(assert (toLower sym195  L80 ))
(assert (toLower sym649  L84 ))
(assert (toLower sym254  L2 ))
(assert (toLower sym595  L72 ))
(assert (toLower sym729  L60 ))
(assert (toLower sym739  L92 ))
(assert (toLower sym413  L88 ))
(assert (toLower "length"  L44 ))
(assert (toLower sym639  L6 ))
(assert (toLower sym205  L76 ))
(assert (toLower "option"  L32 ))
(assert (toLower sym695  L64 ))
(assert (toLower sym303  L96 ))
(assert (toLower "field"  L36 ))
(assert (toLower sym225  L68 ))
(assert (toLower sym719  L100 ))
(assert (toLower "database"  L1 ))
(assert (toLower sym605  L33 ))
(assert (toLower sym489  L108 ))
(assert (toLower sym629  L21 ))
(assert (toLower sym215  L53 ))
(assert (toLower sym513  L41 ))
(assert (toLower sym185  L37 ))
(assert (toLower sym278  L104 ))
(assert (toLower "table"  L69 ))
(assert (toLower sym523  L25 ))
(assert (toLower sym469  L57 ))
(assert (toLower sym150  L13 ))
(assert (toLower sym293  L45 ))
(assert (toLower sym160  L29 ))
(assert (toLower sym675  L17 ))
(assert (toLower sym268  L49 ))
(assert (toLower sym499  L90 ))
(assert (toLower sym113  L0 ))
(assert (toLower sym619  L62 ))
(assert (toLower sym443  L94 ))
(assert (toLower sym175  L82 ))
(assert (toLower sym585  L4 ))
(assert (toLower sym239  L70 ))
(assert (toLower sym665  L66 ))
(assert (toLower sym561  L98 ))
(assert (toLower sym20  L10 ))
(assert (toLower sym135  L86 ))
(assert (toLower sym327  L8 ))
(assert (toLower sym342  L74 ))
(assert (toLower sym403  L78 ))
(assert (toLower "description"  L18 ))
(assert (toLower sym547  L102 ))
(assert (toLower sym459  L51 ))
(assert (toLower "name"  L3 ))
(assert (toLower sym533  L55 ))
(assert (toLower sym479  L11 ))
(assert (toLower sym433  L43 ))
(assert (toLower sym705  L31 ))
(assert (toLower "type"  L7 ))
(assert (toLower sym685  L15 ))
(assert (toLower sym387  L47 ))
(assert (toLower sym313  L35 ))
(assert (toLower sym367  L106 ))
(assert (toLower sym352  L23 ))
(assert (toLower sym571  L19 ))
(assert (toLower sym377  L39 ))
(assert (toLower sym423  L27 ))

(assert (str.in_re sym195 Alphabet))
(assert (str.in_re sym150 Alphabet))
(assert (str.in_re sym479 Alphabet))
(assert (str.in_re sym313 Alphabet))
(assert (str.in_re sym433 Alphabet))
(assert (str.in_re sym675 Alphabet))
(assert (str.in_re sym278 Alphabet))
(assert (str.in_re sym113 Alphabet))
(assert (str.in_re sym595 Alphabet))
(assert (str.in_re sym352 Alphabet))
(assert (str.in_re sym639 Alphabet))
(assert (str.in_re sym239 Alphabet))
(assert (str.in_re sym513 Alphabet))
(assert (str.in_re sym719 Alphabet))
(assert (str.in_re sym185 Alphabet))
(assert (str.in_re sym303 Alphabet))
(assert (str.in_re sym225 Alphabet))
(assert (str.in_re sym665 Alphabet))
(assert (str.in_re sym423 Alphabet))
(assert (str.in_re sym268 Alphabet))
(assert (str.in_re sym387 Alphabet))
(assert (str.in_re sym585 Alphabet))
(assert (str.in_re sym342 Alphabet))
(assert (str.in_re sym629 Alphabet))
(assert (str.in_re sym705 Alphabet))
(assert (str.in_re sym547 Alphabet))
(assert (str.in_re sym469 Alphabet))
(assert (str.in_re sym20 Alphabet))
(assert (str.in_re sym293 Alphabet))
(assert (str.in_re sym413 Alphabet))
(assert (str.in_re sym215 Alphabet))
(assert (str.in_re sym533 Alphabet))
(assert (str.in_re sym499 Alphabet))
(assert (str.in_re sym135 Alphabet))
(assert (str.in_re sym377 Alphabet))
(assert (str.in_re sym695 Alphabet))
(assert (str.in_re sym254 Alphabet))
(assert (str.in_re sym175 Alphabet))
(assert (str.in_re sym571 Alphabet))
(assert (str.in_re sym619 Alphabet))
(assert (str.in_re sym739 Alphabet))
(assert (str.in_re sym459 Alphabet))
(assert (str.in_re sym160 Alphabet))
(assert (str.in_re sym523 Alphabet))
(assert (str.in_re sym489 Alphabet))
(assert (str.in_re sym367 Alphabet))
(assert (str.in_re sym443 Alphabet))
(assert (str.in_re sym685 Alphabet))
(assert (str.in_re sym561 Alphabet))
(assert (str.in_re sym729 Alphabet))
(assert (str.in_re sym649 Alphabet))
(assert (str.in_re sym605 Alphabet))
(assert (str.in_re sym327 Alphabet))
(assert (str.in_re sym403 Alphabet))
(assert (str.in_re sym205 Alphabet))
(assert (= L0 L1 ))
(assert (= L2 L3 ))
(assert (not (= L4 L3 )))
(assert (not (= L6 L7 )))
(assert (= L8 L3 ))
(assert (= L10 "html" ))
(assert (not (= L11 L7 )))
(assert (not (= L13 L3 )))
(assert (not (= L15 L7 )))
(assert (not (= L17 L18 )))
(assert (= L19 L18 ))
(assert (not (= L21 L18 )))
(assert (= L23 L18 ))
(assert (not (= L25 L18 )))
(assert (not (= L27 L7 )))
(assert (= L29 L18 ))
(assert (= L31 L32 ))
(assert (= L33 L7 ))
(assert (= L35 L36 ))
(assert (not (= L37 L18 )))
(assert (not (= L39 L18 )))
(assert (not (= L41 L3 )))
(assert (not (= L43 L44 )))
(assert (not (= L45 L3 )))
(assert (= L47 L7 ))
(assert (not (= L49 L3 )))
(assert (not (= L51 L3 )))
(assert (not (= L53 L18 )))
(assert (= L55 L36 ))
(assert (not (= L57 L18 )))
(assert (not (= L10 "sql" )))
(assert (not (= L60 L18 )))
(assert (not (= L62 L3 )))
(assert (not (= L64 L44 )))
(assert (not (= L66 L3 )))
(assert (= L68 L69 ))
(assert (= L70 L3 ))
(assert (not (= L72 L18 )))
(assert (not (= L74 L3 )))
(assert (not (= L76 L3 )))
(assert (not (= L78 L3 )))
(assert (not (= L80 L69 )))
(assert (not (= L82 L3 )))
(assert (= L84 L44 ))
(assert (= L86 L3 ))
(assert (not (= L88 L18 )))
(assert (= L90 L32 ))
(assert (not (= L92 L36 )))
(assert (= L94 L32 ))
(assert (not (= L96 L18 )))
(assert (not (= L98 L3 )))
(assert (not (= L100 L3 )))
(assert (= L102 L3 ))
(assert (= L104 L18 ))
(assert (not (= L106 L3 )))
(assert (not (= L108 L44 )))
(check-sat)
(get-model)
(exit)
